32
raw_data/rcpsp/DC2-npv75.xlsx rcpspdc392
Time limit set to 60 seconds
Running CP solver
/home/omastto1/General-Optimization-Solver/src/solvers/rcpsp.py:31(stream:95:6): Warning: Cumulative expression 'pulse': height is zero, expression is zero everywhere.
                                                                                            VarCumulAtom_238 = pulse("0", 0)
/home/omastto1/General-Optimization-Solver/src/solvers/rcpsp.py:31(stream:95:1212): Warning: Cumulative expression 'pulse': height is zero, expression is zero everywhere.
                                                                                               VarCumulAtom_314 = pulse("76", 0)
/home/omastto1/General-Optimization-Solver/src/solvers/rcpsp.py:31(stream:96:6): Warning: Cumulative expression 'pulse': height is zero, expression is zero everywhere.
                                                                                            VarCumulAtom_318 = pulse("0", 0)
/home/omastto1/General-Optimization-Solver/src/solvers/rcpsp.py:31(stream:96:1212): Warning: Cumulative expression 'pulse': height is zero, expression is zero everywhere.
                                                                                               VarCumulAtom_394 = pulse("76", 0)
/home/omastto1/General-Optimization-Solver/src/solvers/rcpsp.py:31(stream:97:6): Warning: Cumulative expression 'pulse': height is zero, expression is zero everywhere.
                                                                                            VarCumulAtom_398 = pulse("0", 0)
/home/omastto1/General-Optimization-Solver/src/solvers/rcpsp.py:31(stream:97:1212): Warning: Cumulative expression 'pulse': height is zero, expression is zero everywhere.
                                                                                               VarCumulAtom_474 = pulse("76", 0)
/home/omastto1/General-Optimization-Solver/src/solvers/rcpsp.py:31(stream:98:6): Warning: Cumulative expression 'pulse': height is zero, expression is zero everywhere.
                                                                                            VarCumulAtom_478 = pulse("0", 0)
/home/omastto1/General-Optimization-Solver/src/solvers/rcpsp.py:31(stream:98:1212): Warning: Cumulative expression 'pulse': height is zero, expression is zero everywhere.
                                                                                               VarCumulAtom_554 = pulse("76", 0)
 ! --------------------------------------------------- CP Optimizer 20.1.0.0 --
 ! Minimization problem - 78 variables, 447 constraints
 ! TimeLimit            = 60
 ! Workers              = 14
 ! LogVerbosity         = Terse
 ! Initial process time : 0.00s (0.00s extraction + 0.00s propagation)
 !  . Log search space  : 502.5 (before), 502.5 (after)
 !  . Memory usage      : 834.2 kB (before), 834.2 kB (after)
 ! Using parallel search with 14 workers.
 ! ----------------------------------------------------------------------------
 !          Best Branches  Non-fixed    W       Branch decision
                        0         78                 -
 + New bound is 34
 ! Using iterative diving.
 ! Using temporal relaxation.
 *           140      157  1.02s        1      (gap is 75.71%)
 *           138      313  1.02s        1      (gap is 75.36%)
 *           137      842  1.02s        1      (gap is 75.18%)
 *           130     1411  1.02s        1      (gap is 73.85%)
 *           129     1676  1.02s        1      (gap is 73.64%)
 *           123     2225  1.02s        1      (gap is 72.36%)
             123     8115          3    1   F        -
 + New bound is 107 (gap is 13.01%)
 ! Using failure-directed search.
 *           122    14459  3.18s        3      (gap is 12.30%)
 *           121    26425  5.25s        9      (gap is 11.57%)
 *           120    31321  7.36s       10      (gap is 10.83%)
 *           119    56102  10.59s       9      (gap is 10.08%)
 *           118    93594  22.34s       7      (gap is 9.32%)
 *           117     149k  35.19s      11      (gap is 8.55%)
 ! ----------------------------------------------------------------------------
 ! Search terminated by limit, 12 solutions found.
 ! Best objective         : 117 (gap is 8.55%)
 ! Best bound             : 107
 ! ----------------------------------------------------------------------------
 ! Number of branches     : 4775900
 ! Number of fails        : 1004306
 ! Total memory usage     : 13.2 MB (13.0 MB CP Optimizer + 0.1 MB Concert)
 ! Time spent in solve    : 60.02s (60.02s engine + 0.00s extraction)
 ! Search speed (br. / s) : 79571.8
 ! ----------------------------------------------------------------------------
(107,)
(0.0854701,)
(117,)
Objective value: 117
Solution is 8.3 % worse than the lower bound.
Feasible solution found
